; Copyright (c) 2026 The RIINA Authors. All rights reserved.
; Auto-generated from 02_FORMAL/coq/domains/ZKSTARKSecurity.v (107 validations)
; Generated by scripts/generate-full-stack.py
;
; Translation Validation for ZKSTARKSecurity
; Layer 9: Verifies compiler backend preserves formal semantics.
; Each assertion checks source IR ≡ target code for a proven property.

(set-logic QF_LIA)
(set-option :produce-models true)

; IR node representation
(declare-sort IRNode 0)
(declare-sort TargetNode 0)

; stark_props_secure: source semantics (matches Coq)
(declare-fun source_stark_props_secure () Bool)
(declare-fun target_stark_props_secure () Bool)
(assert (= source_stark_props_secure target_stark_props_secure))

; air_secure: source semantics (matches Coq)
(declare-fun source_air_secure () Bool)
(declare-fun target_air_secure () Bool)
(assert (= source_air_secure target_air_secure))

; fri_secure: source semantics (matches Coq)
(declare-fun source_fri_secure () Bool)
(declare-fun target_fri_secure () Bool)
(assert (= source_fri_secure target_fri_secure))

; stark_fully_secure: source semantics (matches Coq)
(declare-fun source_stark_fully_secure () Bool)
(declare-fun target_stark_fully_secure () Bool)
(assert (= source_stark_fully_secure target_stark_fully_secure))

; extended_secure: source semantics (matches Coq)
(declare-fun source_extended_secure () Bool)
(declare-fun target_extended_secure () Bool)
(assert (= source_extended_secure target_extended_secure))

; prover_honest: source semantics (matches Coq)
(declare-fun source_prover_honest () Bool)
(declare-fun target_prover_honest () Bool)
(assert (= source_prover_honest target_prover_honest))

; verifier_honest: source semantics (matches Coq)
(declare-fun source_verifier_honest () Bool)
(declare-fun target_verifier_honest () Bool)
(assert (= source_verifier_honest target_verifier_honest))

; simulation_valid: source semantics (matches Coq)
(declare-fun source_simulation_valid () Bool)
(declare-fun target_simulation_valid () Bool)
(assert (= source_simulation_valid target_simulation_valid))

; riina_stark_props: source semantics (matches Coq)
(declare-fun source_riina_stark_props () Bool)
(declare-fun target_riina_stark_props () Bool)
(assert (= source_riina_stark_props target_riina_stark_props))

; riina_air: source semantics (matches Coq)
(declare-fun source_riina_air () Bool)
(declare-fun target_riina_air () Bool)
(assert (= source_riina_air target_riina_air))

; riina_stark: source semantics (matches Coq)
(declare-fun source_riina_stark () Bool)
(declare-fun target_riina_stark () Bool)
(assert (= source_riina_stark target_riina_stark))

; riina_fri: source semantics (matches Coq)
(declare-fun source_riina_fri () Bool)
(declare-fun target_riina_fri () Bool)
(assert (= source_riina_fri target_riina_fri))

; riina_extended: source semantics (matches Coq)
(declare-fun source_riina_extended () Bool)
(declare-fun target_riina_extended () Bool)
(assert (= source_riina_extended target_riina_extended))

; honest_prover: source semantics (matches Coq)
(declare-fun source_honest_prover () Bool)
(declare-fun target_honest_prover () Bool)
(assert (= source_honest_prover target_honest_prover))

; honest_verifier: source semantics (matches Coq)
(declare-fun source_honest_verifier () Bool)
(declare-fun target_honest_verifier () Bool)
(assert (= source_honest_verifier target_honest_verifier))

; valid_simulator: source semantics (matches Coq)
(declare-fun source_valid_simulator () Bool)
(declare-fun target_valid_simulator () Bool)
(assert (= source_valid_simulator target_valid_simulator))

; computational_soundness: source semantics (matches Coq)
(declare-fun source_computational_soundness () Bool)
(declare-fun target_computational_soundness () Bool)
(assert (= source_computational_soundness target_computational_soundness))

; amplified_soundness: source semantics (matches Coq)
(declare-fun source_amplified_soundness () Bool)
(declare-fun target_amplified_soundness () Bool)
(assert (= source_amplified_soundness target_amplified_soundness))

; simulation_based_zk: source semantics (matches Coq)
(declare-fun source_simulation_based_zk () Bool)
(declare-fun target_simulation_based_zk () Bool)
(assert (= source_simulation_based_zk target_simulation_based_zk))

; perfect_zk: source semantics (matches Coq)
(declare-fun source_perfect_zk () Bool)
(declare-fun target_perfect_zk () Bool)
(assert (= source_perfect_zk target_perfect_zk))

; zk_with_soundness: source semantics (matches Coq)
(declare-fun source_zk_with_soundness () Bool)
(declare-fun target_zk_with_soundness () Bool)
(assert (= source_zk_with_soundness target_zk_with_soundness))

; interaction_complete: source semantics (matches Coq)
(declare-fun source_interaction_complete () Bool)
(declare-fun target_interaction_complete () Bool)
(assert (= source_interaction_complete target_interaction_complete))

; fri_complete: source semantics (matches Coq)
(declare-fun source_fri_complete () Bool)
(declare-fun target_fri_complete () Bool)
(assert (= source_fri_complete target_fri_complete))

; post_quantum_secure: source semantics (matches Coq)
(declare-fun source_post_quantum_secure () Bool)
(declare-fun target_post_quantum_secure () Bool)
(assert (= source_post_quantum_secure target_post_quantum_secure))

; hash_based_security: source semantics (matches Coq)
(declare-fun source_hash_based_security () Bool)
(declare-fun target_hash_based_security () Bool)
(assert (= source_hash_based_security target_hash_based_security))

; fully_transparent: source semantics (matches Coq)
(declare-fun source_fully_transparent () Bool)
(declare-fun target_fully_transparent () Bool)
(assert (= source_fully_transparent target_fully_transparent))

; publicly_verifiable: source semantics (matches Coq)
(declare-fun source_publicly_verifiable () Bool)
(declare-fun target_publicly_verifiable () Bool)
(assert (= source_publicly_verifiable target_publicly_verifiable))

; extraction_secure: source semantics (matches Coq)
(declare-fun source_extraction_secure () Bool)
(declare-fun target_extraction_secure () Bool)
(assert (= source_extraction_secure target_extraction_secure))

; air_stark_connection: source semantics (matches Coq)
(declare-fun source_air_stark_connection () Bool)
(declare-fun target_air_stark_connection () Bool)
(assert (= source_air_stark_connection target_air_stark_connection))

; modular_stark: source semantics (matches Coq)
(declare-fun source_modular_stark () Bool)
(declare-fun target_modular_stark () Bool)
(assert (= source_modular_stark target_modular_stark))

; full_stark_security: source semantics (matches Coq)
(declare-fun source_full_stark_security () Bool)
(declare-fun target_full_stark_security () Bool)
(assert (= source_full_stark_security target_full_stark_security))

; andb_true_iff: translation preserves property (matches Coq: Lemma)
(declare-fun source_andb_true_iff () Bool)
(declare-fun target_andb_true_iff () Bool)
(assert (= source_andb_true_iff target_andb_true_iff))

; orb_true_iff: translation preserves property (matches Coq: Lemma)
(declare-fun source_orb_true_iff () Bool)
(declare-fun target_orb_true_iff () Bool)
(assert (= source_orb_true_iff target_orb_true_iff))

; negb_true_iff: translation preserves property (matches Coq: Lemma)
(declare-fun source_negb_true_iff () Bool)
(declare-fun target_negb_true_iff () Bool)
(assert (= source_negb_true_iff target_negb_true_iff))

; bool_dec: translation preserves property (matches Coq: Lemma)
(declare-fun source_bool_dec () Bool)
(declare-fun target_bool_dec () Bool)
(assert (= source_bool_dec target_bool_dec))

; andb_false_iff: translation preserves property (matches Coq: Lemma)
(declare-fun source_andb_false_iff () Bool)
(declare-fun target_andb_false_iff () Bool)
(assert (= source_andb_false_iff target_andb_false_iff))

; STARK_001: translation preserves property (matches Coq: Theorem)
(declare-fun source_STARK_001 () Bool)
(declare-fun target_STARK_001 () Bool)
(assert (= source_STARK_001 target_STARK_001))

; STARK_002: translation preserves property (matches Coq: Theorem)
(declare-fun source_STARK_002 () Bool)
(declare-fun target_STARK_002 () Bool)
(assert (= source_STARK_002 target_STARK_002))

; STARK_003: translation preserves property (matches Coq: Theorem)
(declare-fun source_STARK_003 () Bool)
(declare-fun target_STARK_003 () Bool)
(assert (= source_STARK_003 target_STARK_003))

; STARK_004: translation preserves property (matches Coq: Theorem)
(declare-fun source_STARK_004 () Bool)
(declare-fun target_STARK_004 () Bool)
(assert (= source_STARK_004 target_STARK_004))

; STARK_005: translation preserves property (matches Coq: Theorem)
(declare-fun source_STARK_005 () Bool)
(declare-fun target_STARK_005 () Bool)
(assert (= source_STARK_005 target_STARK_005))

; STARK_006: translation preserves property (matches Coq: Theorem)
(declare-fun source_STARK_006 () Bool)
(declare-fun target_STARK_006 () Bool)
(assert (= source_STARK_006 target_STARK_006))

; STARK_007: translation preserves property (matches Coq: Theorem)
(declare-fun source_STARK_007 () Bool)
(declare-fun target_STARK_007 () Bool)
(assert (= source_STARK_007 target_STARK_007))

; STARK_008: translation preserves property (matches Coq: Theorem)
(declare-fun source_STARK_008 () Bool)
(declare-fun target_STARK_008 () Bool)
(assert (= source_STARK_008 target_STARK_008))

; STARK_009: translation preserves property (matches Coq: Theorem)
(declare-fun source_STARK_009 () Bool)
(declare-fun target_STARK_009 () Bool)
(assert (= source_STARK_009 target_STARK_009))

; STARK_010: translation preserves property (matches Coq: Theorem)
(declare-fun source_STARK_010 () Bool)
(declare-fun target_STARK_010 () Bool)
(assert (= source_STARK_010 target_STARK_010))

; STARK_011: translation preserves property (matches Coq: Theorem)
(declare-fun source_STARK_011 () Bool)
(declare-fun target_STARK_011 () Bool)
(assert (= source_STARK_011 target_STARK_011))

; STARK_012: translation preserves property (matches Coq: Theorem)
(declare-fun source_STARK_012 () Bool)
(declare-fun target_STARK_012 () Bool)
(assert (= source_STARK_012 target_STARK_012))

; STARK_013: translation preserves property (matches Coq: Theorem)
(declare-fun source_STARK_013 () Bool)
(declare-fun target_STARK_013 () Bool)
(assert (= source_STARK_013 target_STARK_013))

; STARK_014: translation preserves property (matches Coq: Theorem)
(declare-fun source_STARK_014 () Bool)
(declare-fun target_STARK_014 () Bool)
(assert (= source_STARK_014 target_STARK_014))

; STARK_015: translation preserves property (matches Coq: Theorem)
(declare-fun source_STARK_015 () Bool)
(declare-fun target_STARK_015 () Bool)
(assert (= source_STARK_015 target_STARK_015))

; STARK_016: translation preserves property (matches Coq: Theorem)
(declare-fun source_STARK_016 () Bool)
(declare-fun target_STARK_016 () Bool)
(assert (= source_STARK_016 target_STARK_016))

; STARK_017: translation preserves property (matches Coq: Theorem)
(declare-fun source_STARK_017 () Bool)
(declare-fun target_STARK_017 () Bool)
(assert (= source_STARK_017 target_STARK_017))

; STARK_018: translation preserves property (matches Coq: Theorem)
(declare-fun source_STARK_018 () Bool)
(declare-fun target_STARK_018 () Bool)
(assert (= source_STARK_018 target_STARK_018))

; STARK_019: translation preserves property (matches Coq: Theorem)
(declare-fun source_STARK_019 () Bool)
(declare-fun target_STARK_019 () Bool)
(assert (= source_STARK_019 target_STARK_019))

; STARK_020: translation preserves property (matches Coq: Theorem)
(declare-fun source_STARK_020 () Bool)
(declare-fun target_STARK_020 () Bool)
(assert (= source_STARK_020 target_STARK_020))

; STARK_021: translation preserves property (matches Coq: Theorem)
(declare-fun source_STARK_021 () Bool)
(declare-fun target_STARK_021 () Bool)
(assert (= source_STARK_021 target_STARK_021))

; STARK_022: translation preserves property (matches Coq: Theorem)
(declare-fun source_STARK_022 () Bool)
(declare-fun target_STARK_022 () Bool)
(assert (= source_STARK_022 target_STARK_022))

; STARK_023: translation preserves property (matches Coq: Theorem)
(declare-fun source_STARK_023 () Bool)
(declare-fun target_STARK_023 () Bool)
(assert (= source_STARK_023 target_STARK_023))

; STARK_024: translation preserves property (matches Coq: Theorem)
(declare-fun source_STARK_024 () Bool)
(declare-fun target_STARK_024 () Bool)
(assert (= source_STARK_024 target_STARK_024))

; STARK_025_complete: translation preserves property (matches Coq: Theorem)
(declare-fun source_STARK_025_complete () Bool)
(declare-fun target_STARK_025_complete () Bool)
(assert (= source_STARK_025_complete target_STARK_025_complete))

; FRI_soundness_property: translation preserves property (matches Coq: Theorem)
(declare-fun source_FRI_soundness_property () Bool)
(declare-fun target_FRI_soundness_property () Bool)
(assert (= source_FRI_soundness_property target_FRI_soundness_property))

; FRI_query_bound_property: translation preserves property (matches Coq: Theorem)
(declare-fun source_FRI_query_bound_property () Bool)
(declare-fun target_FRI_query_bound_property () Bool)
(assert (= source_FRI_query_bound_property target_FRI_query_bound_property))

; FRI_commitment_binding_property: translation preserves property (matches Coq: Theorem)
(declare-fun source_FRI_commitment_binding_property () Bool)
(declare-fun target_FRI_commitment_binding_property () Bool)
(assert (= source_FRI_commitment_binding_property target_FRI_commitment_binding_property))

; FRI_fiat_shamir_property: translation preserves property (matches Coq: Theorem)
(declare-fun source_FRI_fiat_shamir_property () Bool)
(declare-fun target_FRI_fiat_shamir_property () Bool)
(assert (= source_FRI_fiat_shamir_property target_FRI_fiat_shamir_property))

; FRI_riina_soundness: translation preserves property (matches Coq: Theorem)
(declare-fun source_FRI_riina_soundness () Bool)
(declare-fun target_FRI_riina_soundness () Bool)
(assert (= source_FRI_riina_soundness target_FRI_riina_soundness))

; FRI_riina_query_bound: translation preserves property (matches Coq: Theorem)
(declare-fun source_FRI_riina_query_bound () Bool)
(declare-fun target_FRI_riina_query_bound () Bool)
(assert (= source_FRI_riina_query_bound target_FRI_riina_query_bound))

; FRI_riina_commitment: translation preserves property (matches Coq: Theorem)
(declare-fun source_FRI_riina_commitment () Bool)
(declare-fun target_FRI_riina_commitment () Bool)
(assert (= source_FRI_riina_commitment target_FRI_riina_commitment))

; FRI_riina_transform: translation preserves property (matches Coq: Theorem)
(declare-fun source_FRI_riina_transform () Bool)
(declare-fun target_FRI_riina_transform () Bool)
(assert (= source_FRI_riina_transform target_FRI_riina_transform))

; FRI_riina_secure: translation preserves property (matches Coq: Theorem)
(declare-fun source_FRI_riina_secure () Bool)
(declare-fun target_FRI_riina_secure () Bool)
(assert (= source_FRI_riina_secure target_FRI_riina_secure))

; FRI_rounds_positive: translation preserves property (matches Coq: Theorem)
(declare-fun source_FRI_rounds_positive () Bool)
(declare-fun target_FRI_rounds_positive () Bool)
(assert (= source_FRI_rounds_positive target_FRI_rounds_positive))

; FRI_proximity_positive: translation preserves property (matches Coq: Theorem)
(declare-fun source_FRI_proximity_positive () Bool)
(declare-fun target_FRI_proximity_positive () Bool)
(assert (= source_FRI_proximity_positive target_FRI_proximity_positive))

; soundness_implies_starks: translation preserves property (matches Coq: Theorem)
(declare-fun source_soundness_implies_starks () Bool)
(declare-fun target_soundness_implies_starks () Bool)
(assert (= source_soundness_implies_starks target_soundness_implies_starks))

; soundness_implies_fri: translation preserves property (matches Coq: Theorem)
(declare-fun source_soundness_implies_fri () Bool)
(declare-fun target_soundness_implies_fri () Bool)
(assert (= source_soundness_implies_fri target_soundness_implies_fri))

; soundness_implies_binding: translation preserves property (matches Coq: Theorem)
(declare-fun source_soundness_implies_binding () Bool)
(declare-fun target_soundness_implies_binding () Bool)
(assert (= source_soundness_implies_binding target_soundness_implies_binding))

; riina_computational_soundness: translation preserves property (matches Coq: Theorem)
(declare-fun source_riina_computational_soundness () Bool)
(declare-fun target_riina_computational_soundness () Bool)
(assert (= source_riina_computational_soundness target_riina_computational_soundness))

; soundness_amplification: translation preserves property (matches Coq: Theorem)
(declare-fun source_soundness_amplification () Bool)
(declare-fun target_soundness_amplification () Bool)
(assert (= source_soundness_amplification target_soundness_amplification))

; soundness_composition: translation preserves property (matches Coq: Theorem)
(declare-fun source_soundness_composition () Bool)
(declare-fun target_soundness_composition () Bool)
(assert (= source_soundness_composition target_soundness_composition))

; zk_implies_starks_zk: translation preserves property (matches Coq: Theorem)
(declare-fun source_zk_implies_starks_zk () Bool)
(declare-fun target_zk_implies_starks_zk () Bool)
(assert (= source_zk_implies_starks_zk target_zk_implies_starks_zk))

; zk_implies_indistinguishable: translation preserves property (matches Coq: Theorem)
(declare-fun source_zk_implies_indistinguishable () Bool)
(declare-fun target_zk_implies_indistinguishable () Bool)
(assert (= source_zk_implies_indistinguishable target_zk_implies_indistinguishable))

; perfect_zk_implies_simulation: translation preserves property (matches Coq: Theorem)
(declare-fun source_perfect_zk_implies_simulation () Bool)
(declare-fun target_perfect_zk_implies_simulation () Bool)
(assert (= source_perfect_zk_implies_simulation target_perfect_zk_implies_simulation))

; perfect_zk_rewinding: translation preserves property (matches Coq: Theorem)
(declare-fun source_perfect_zk_rewinding () Bool)
(declare-fun target_perfect_zk_rewinding () Bool)
(assert (= source_perfect_zk_rewinding target_perfect_zk_rewinding))

; riina_simulation_zk: translation preserves property (matches Coq: Theorem)
(declare-fun source_riina_simulation_zk () Bool)
(declare-fun target_riina_simulation_zk () Bool)
(assert (= source_riina_simulation_zk target_riina_simulation_zk))

; riina_perfect_zk: translation preserves property (matches Coq: Theorem)
(declare-fun source_riina_perfect_zk () Bool)
(declare-fun target_riina_perfect_zk () Bool)
(assert (= source_riina_perfect_zk target_riina_perfect_zk))

; simulator_validity: translation preserves property (matches Coq: Theorem)
(declare-fun source_simulator_validity () Bool)
(declare-fun target_simulator_validity () Bool)
(assert (= source_simulator_validity target_simulator_validity))

; zk_soundness_composition: translation preserves property (matches Coq: Theorem)
(declare-fun source_zk_soundness_composition () Bool)
(declare-fun target_zk_soundness_composition () Bool)
(assert (= source_zk_soundness_composition target_zk_soundness_composition))

; riina_zk_soundness: translation preserves property (matches Coq: Theorem)
(declare-fun source_riina_zk_soundness () Bool)
(declare-fun target_riina_zk_soundness () Bool)
(assert (= source_riina_zk_soundness target_riina_zk_soundness))

; completeness_requires_honest_prover: translation preserves property (matches Coq: Theorem)
(declare-fun source_completeness_requires_honest_prover () Bool)
(declare-fun target_completeness_requires_honest_prover () Bool)
(assert (= source_completeness_requires_honest_prover target_completeness_requires_honest_prover))

; completeness_requires_starks: translation preserves property (matches Coq: Theorem)
(declare-fun source_completeness_requires_starks () Bool)
(declare-fun target_completeness_requires_starks () Bool)
(assert (= source_completeness_requires_starks target_completeness_requires_starks))

; completeness_implies_acceptance: translation preserves property (matches Coq: Theorem)
(declare-fun source_completeness_implies_acceptance () Bool)
(declare-fun target_completeness_implies_acceptance () Bool)
(assert (= source_completeness_implies_acceptance target_completeness_implies_acceptance))

; riina_complete_interaction: translation preserves property (matches Coq: Theorem)
(declare-fun source_riina_complete_interaction () Bool)
(declare-fun target_riina_complete_interaction () Bool)
(assert (= source_riina_complete_interaction target_riina_complete_interaction))

; honest_prover_property: translation preserves property (matches Coq: Theorem)
(declare-fun source_honest_prover_property () Bool)
(declare-fun target_honest_prover_property () Bool)
(assert (= source_honest_prover_property target_honest_prover_property))

; honest_verifier_property: translation preserves property (matches Coq: Theorem)
(declare-fun source_honest_verifier_property () Bool)
(declare-fun target_honest_verifier_property () Bool)
(assert (= source_honest_verifier_property target_honest_verifier_property))

; fri_completeness_requires_prover: translation preserves property (matches Coq: Theorem)
(declare-fun source_fri_completeness_requires_prover () Bool)
(declare-fun target_fri_completeness_requires_prover () Bool)
(assert (= source_fri_completeness_requires_prover target_fri_completeness_requires_prover))

; riina_fri_complete: translation preserves property (matches Coq: Theorem)
(declare-fun source_riina_fri_complete () Bool)
(declare-fun target_riina_fri_complete () Bool)
(assert (= source_riina_fri_complete target_riina_fri_complete))

; pq_implies_stark_pq: translation preserves property (matches Coq: Theorem)
(declare-fun source_pq_implies_stark_pq () Bool)
(declare-fun target_pq_implies_stark_pq () Bool)
(assert (= source_pq_implies_stark_pq target_pq_implies_stark_pq))

; pq_implies_ext_resistant: translation preserves property (matches Coq: Theorem)
(declare-fun source_pq_implies_ext_resistant () Bool)
(declare-fun target_pq_implies_ext_resistant () Bool)
(assert (= source_pq_implies_ext_resistant target_pq_implies_ext_resistant))

; riina_post_quantum: translation preserves property (matches Coq: Theorem)
(declare-fun source_riina_post_quantum () Bool)
(declare-fun target_riina_post_quantum () Bool)
(assert (= source_riina_post_quantum target_riina_post_quantum))

; hash_security_pq: translation preserves property (matches Coq: Theorem)
(declare-fun source_hash_security_pq () Bool)
(declare-fun target_hash_security_pq () Bool)
(assert (= source_hash_security_pq target_hash_security_pq))

; hash_security_binding: translation preserves property (matches Coq: Theorem)
(declare-fun source_hash_security_binding () Bool)
(declare-fun target_hash_security_binding () Bool)
(assert (= source_hash_security_binding target_hash_security_binding))

; riina_hash_security: translation preserves property (matches Coq: Theorem)
(declare-fun source_riina_hash_security () Bool)
(declare-fun target_riina_hash_security () Bool)
(assert (= source_riina_hash_security target_riina_hash_security))

; transparency_enables_pq: translation preserves property (matches Coq: Theorem)
(declare-fun source_transparency_enables_pq () Bool)
(declare-fun target_transparency_enables_pq () Bool)
(assert (= source_transparency_enables_pq target_transparency_enables_pq))

; transparency_no_setup: translation preserves property (matches Coq: Theorem)
(declare-fun source_transparency_no_setup () Bool)
(declare-fun target_transparency_no_setup () Bool)
(assert (= source_transparency_no_setup target_transparency_no_setup))

; transparency_fiat_shamir: translation preserves property (matches Coq: Theorem)
(declare-fun source_transparency_fiat_shamir () Bool)
(declare-fun target_transparency_fiat_shamir () Bool)
(assert (= source_transparency_fiat_shamir target_transparency_fiat_shamir))

; riina_fully_transparent: translation preserves property (matches Coq: Theorem)
(declare-fun source_riina_fully_transparent () Bool)
(declare-fun target_riina_fully_transparent () Bool)
(assert (= source_riina_fully_transparent target_riina_fully_transparent))

; public_verify_transparent: translation preserves property (matches Coq: Theorem)
(declare-fun source_public_verify_transparent () Bool)
(declare-fun target_public_verify_transparent () Bool)
(assert (= source_public_verify_transparent target_public_verify_transparent))

; public_verify_sound: translation preserves property (matches Coq: Theorem)
(declare-fun source_public_verify_sound () Bool)
(declare-fun target_public_verify_sound () Bool)
(assert (= source_public_verify_sound target_public_verify_sound))

; riina_publicly_verifiable: translation preserves property (matches Coq: Theorem)
(declare-fun source_riina_publicly_verifiable () Bool)
(declare-fun target_riina_publicly_verifiable () Bool)
(assert (= source_riina_publicly_verifiable target_riina_publicly_verifiable))

; extended_implies_base: translation preserves property (matches Coq: Theorem)
(declare-fun source_extended_implies_base () Bool)
(declare-fun target_extended_implies_base () Bool)
(assert (= source_extended_implies_base target_extended_implies_base))

; extended_implies_fri: translation preserves property (matches Coq: Theorem)
(declare-fun source_extended_implies_fri () Bool)
(declare-fun target_extended_implies_fri () Bool)
(assert (= source_extended_implies_fri target_extended_implies_fri))

; extended_implies_simulation: translation preserves property (matches Coq: Theorem)
(declare-fun source_extended_implies_simulation () Bool)
(declare-fun target_extended_implies_simulation () Bool)
(assert (= source_extended_implies_simulation target_extended_implies_simulation))

; extended_implies_extraction: translation preserves property (matches Coq: Theorem)
(declare-fun source_extended_implies_extraction () Bool)
(declare-fun target_extended_implies_extraction () Bool)
(assert (= source_extended_implies_extraction target_extended_implies_extraction))

; extended_implies_quantum: translation preserves property (matches Coq: Theorem)
(declare-fun source_extended_implies_quantum () Bool)
(declare-fun target_extended_implies_quantum () Bool)
(assert (= source_extended_implies_quantum target_extended_implies_quantum))

; riina_extended_secure: translation preserves property (matches Coq: Theorem)
(declare-fun source_riina_extended_secure () Bool)
(declare-fun target_riina_extended_secure () Bool)
(assert (= source_riina_extended_secure target_riina_extended_secure))

; extraction_implies_ext: translation preserves property (matches Coq: Theorem)
(declare-fun source_extraction_implies_ext () Bool)
(declare-fun target_extraction_implies_ext () Bool)
(assert (= source_extraction_implies_ext target_extraction_implies_ext))

; extraction_implies_fri_sound: translation preserves property (matches Coq: Theorem)
(declare-fun source_extraction_implies_fri_sound () Bool)
(declare-fun target_extraction_implies_fri_sound () Bool)
(assert (= source_extraction_implies_fri_sound target_extraction_implies_fri_sound))

; extraction_implies_query_bound: translation preserves property (matches Coq: Theorem)
(declare-fun source_extraction_implies_query_bound () Bool)
(declare-fun target_extraction_implies_query_bound () Bool)
(assert (= source_extraction_implies_query_bound target_extraction_implies_query_bound))

; riina_extraction_secure: translation preserves property (matches Coq: Theorem)
(declare-fun source_riina_extraction_secure () Bool)
(declare-fun target_riina_extraction_secure () Bool)
(assert (= source_riina_extraction_secure target_riina_extraction_secure))

; air_algebraic_required: translation preserves property (matches Coq: Theorem)
(declare-fun source_air_algebraic_required () Bool)
(declare-fun target_air_algebraic_required () Bool)
(assert (= source_air_algebraic_required target_air_algebraic_required))

; air_low_degree_required: translation preserves property (matches Coq: Theorem)
(declare-fun source_air_low_degree_required () Bool)
(declare-fun target_air_low_degree_required () Bool)
(assert (= source_air_low_degree_required target_air_low_degree_required))

; air_fri_required: translation preserves property (matches Coq: Theorem)
(declare-fun source_air_fri_required () Bool)
(declare-fun target_air_fri_required () Bool)
(assert (= source_air_fri_required target_air_fri_required))

; riina_air_fri_connection: translation preserves property (matches Coq: Theorem)
(declare-fun source_riina_air_fri_connection () Bool)
(declare-fun target_riina_air_fri_connection () Bool)
(assert (= source_riina_air_fri_connection target_riina_air_fri_connection))

; modular_implies_stark: translation preserves property (matches Coq: Theorem)
(declare-fun source_modular_implies_stark () Bool)
(declare-fun target_modular_implies_stark () Bool)
(assert (= source_modular_implies_stark target_modular_implies_stark))

; modular_implies_fri: translation preserves property (matches Coq: Theorem)
(declare-fun source_modular_implies_fri () Bool)
(declare-fun target_modular_implies_fri () Bool)
(assert (= source_modular_implies_fri target_modular_implies_fri))

; modular_implies_sim: translation preserves property (matches Coq: Theorem)
(declare-fun source_modular_implies_sim () Bool)
(declare-fun target_modular_implies_sim () Bool)
(assert (= source_modular_implies_sim target_modular_implies_sim))

; riina_modular_stark: translation preserves property (matches Coq: Theorem)
(declare-fun source_riina_modular_stark () Bool)
(declare-fun target_riina_modular_stark () Bool)
(assert (= source_riina_modular_stark target_riina_modular_stark))

; full_security_modular: translation preserves property (matches Coq: Theorem)
(declare-fun source_full_security_modular () Bool)
(declare-fun target_full_security_modular () Bool)
(assert (= source_full_security_modular target_full_security_modular))

; full_security_extended: translation preserves property (matches Coq: Theorem)
(declare-fun source_full_security_extended () Bool)
(declare-fun target_full_security_extended () Bool)
(assert (= source_full_security_extended target_full_security_extended))

; riina_full_security: translation preserves property (matches Coq: Theorem)
(declare-fun source_riina_full_security () Bool)
(declare-fun target_riina_full_security () Bool)
(assert (= source_riina_full_security target_riina_full_security))

; STARK_MASTER_SECURITY: translation preserves property (matches Coq: Theorem)
(declare-fun source_STARK_MASTER_SECURITY () Bool)
(declare-fun target_STARK_MASTER_SECURITY () Bool)
(assert (= source_STARK_MASTER_SECURITY target_STARK_MASTER_SECURITY))

; riina_master_security: translation preserves property (matches Coq: Theorem)
(declare-fun source_riina_master_security () Bool)
(declare-fun target_riina_master_security () Bool)
(assert (= source_riina_master_security target_riina_master_security))

; stark_security_equivalence: translation preserves property (matches Coq: Theorem)
(declare-fun source_stark_security_equivalence () Bool)
(declare-fun target_stark_security_equivalence () Bool)
(assert (= source_stark_security_equivalence target_stark_security_equivalence))

; fri_security_equivalence: translation preserves property (matches Coq: Theorem)
(declare-fun source_fri_security_equivalence () Bool)
(declare-fun target_fri_security_equivalence () Bool)
(assert (= source_fri_security_equivalence target_fri_security_equivalence))

; stark_props_secure_dec: translation preserves property (matches Coq: Theorem)
(declare-fun source_stark_props_secure_dec () Bool)
(declare-fun target_stark_props_secure_dec () Bool)
(assert (= source_stark_props_secure_dec target_stark_props_secure_dec))

; air_secure_dec: translation preserves property (matches Coq: Theorem)
(declare-fun source_air_secure_dec () Bool)
(declare-fun target_air_secure_dec () Bool)
(assert (= source_air_secure_dec target_air_secure_dec))

; fri_secure_dec: translation preserves property (matches Coq: Theorem)
(declare-fun source_fri_secure_dec () Bool)
(declare-fun target_fri_secure_dec () Bool)
(assert (= source_fri_secure_dec target_fri_secure_dec))

; stark_fully_secure_dec: translation preserves property (matches Coq: Theorem)
(declare-fun source_stark_fully_secure_dec () Bool)
(declare-fun target_stark_fully_secure_dec () Bool)
(assert (= source_stark_fully_secure_dec target_stark_fully_secure_dec))

; extended_secure_dec: translation preserves property (matches Coq: Theorem)
(declare-fun source_extended_secure_dec () Bool)
(declare-fun target_extended_secure_dec () Bool)
(assert (= source_extended_secure_dec target_extended_secure_dec))

; Verify all translation validations are satisfiable
(check-sat)
(exit)
